NAME : OMNETRUN
COMMENT : 524.61
TYPE : CVRP
DIMENSION : 21
EDGE_WEIGHT_TYPE : EUC_2D
CAPACITY : 21
NODE_COORD_SECTION
1 0.107093 -0.77924
2 134.442 -50.3166
3 19.5048 -1491.01
4 129.361 -2151.64
5 58.7554 -2777.19
6 35.5677 -3148.53
7 244.809 -3705.54
8 231.573 -4343.31
9 102.614 -4858.37
10 54.1001 -5228.36
11 51.4742 -5835.51
12 466.938 -1376.97
13 370.37 -1817.47
14 323.926 -2467.17
15 442.422 -5265.9
16 658.951 -61.6268
17 500.209 -544.997
18 633.025 -968.837
19 572.398 -3130.3
20 623.77 -3649.42
21 566.431 -4147.65
DEMAND_SECTION
1 0
2 1
3 1
4 1
5 1
6 1
7 1
8 1
9 1
10 1
11 1
12 1
13 1
14 1
15 1
16 1
17 1
18 1
19 1
20 1
21 1
DEPOT_SECTION
1
-1
EOF
